(set-info :source |printed by MathSAT|)
(declare-fun call_synapse.mem_init_s () Int)
(declare-fun call_synapse.ite5 () Int)
(declare-fun call_synapse.flby3 () Int)
(declare-fun call_synapse.ite2 () Int)
(declare-fun call_synapse.ite4 () Int)
(declare-fun call_synapse.ite14 () Int)
(declare-fun call_excludes3.excludes () Bool)
(declare-fun call_synapse.ite3 () Int)
(declare-fun call_synapse.invalid_s () Int)
(declare-fun dirty_s () Int)
(declare-fun _OK_ () Bool)
(declare-fun call_synapse.ite8 () Int)
(declare-fun call_synapse.ite15 () Int)
(declare-fun valid_s () Int)
(declare-fun param_e_s1 () Bool)
(declare-fun param_init_invalid_s () Int)
(declare-fun call_synapse.garde_s1 () Bool)
(declare-fun param_e_s3 () Bool)
(declare-fun call_synapse.ite12 () Int)
(declare-fun param_e_s2 () Bool)
(declare-fun call_synapse.ite13 () Int)
(declare-fun invalid_s () Int)
(declare-fun call_Sofar.flby () Bool)
(declare-fun call_synapse.ite18 () Int)
(declare-fun call_synapse.ite7 () Int)
(declare-fun env () Bool)
(declare-fun call_synapse.garde_s3 () Bool)
(declare-fun call_synapse.flby4 () Int)
(declare-fun call_synapse.dirty_s () Int)
(declare-fun call_synapse.ite17 () Int)
(declare-fun call_synapse.ite16 () Int)
(declare-fun call_synapse.ite11 () Int)
(declare-fun call_synapse.garde_s2 () Bool)
(declare-fun call_synapse.valid_s () Int)
(declare-fun call_synapse.flby () Int)
(declare-fun call_synapse.flby2 () Int)
(declare-fun flby () Bool)
(declare-fun call_synapse.ite6 () Int)
(declare-fun mem_init_s () Int)
(declare-fun call_Sofar.Sofar () Bool)
(declare-fun call_synapse.ite9 () Int)
(declare-fun call_synapse.ite () Int)
(declare-fun call_synapse.ite10 () Int)
(define-fun .def_563 () Bool (= call_Sofar.flby call_Sofar.Sofar))
(define-fun .def_558 () Bool (and param_e_s3 param_e_s2))
(define-fun .def_555 () Bool (and param_e_s1 param_e_s2))
(define-fun .def_556 () Bool (and param_e_s1 .def_555))
(define-fun .def_557 () Bool (and param_e_s3 .def_556))
(define-fun .def_559 () Bool (or .def_557 .def_558))
(define-fun .def_560 () Bool (not .def_559))
(define-fun .def_561 () Bool (= call_excludes3.excludes .def_560))
(define-fun .def_553 () Bool (= call_synapse.flby call_synapse.mem_init_s))
(define-fun .def_551 () Bool (= call_synapse.flby4 call_synapse.dirty_s))
(define-fun .def_549 () Bool (= call_synapse.flby3 call_synapse.valid_s))
(define-fun .def_547 () Bool (= call_synapse.flby2 call_synapse.invalid_s))
(define-fun .def_543 () Bool (= call_synapse.ite16 call_synapse.ite17))
(define-fun .def_544 () Bool (or param_e_s2 .def_543))
(define-fun .def_540 () Bool (= call_synapse.ite14 call_synapse.ite17))
(define-fun .def_531 () Bool (not param_e_s2))
(define-fun .def_541 () Bool (or .def_531 .def_540))
(define-fun .def_537 () Bool (= call_synapse.ite10 call_synapse.ite11))
(define-fun .def_538 () Bool (or param_e_s2 .def_537))
(define-fun .def_534 () Bool (= call_synapse.ite8 call_synapse.ite11))
(define-fun .def_535 () Bool (or .def_531 .def_534))
(define-fun .def_530 () Bool (= call_synapse.ite5 call_synapse.ite2))
(define-fun .def_532 () Bool (or .def_530 .def_531))
(define-fun .def_526 () Bool (= call_synapse.ite4 call_synapse.ite5))
(define-fun .def_528 () Bool (or .def_526 param_e_s2))
(define-fun .def_533 () Bool (and .def_528 .def_532))
(define-fun .def_536 () Bool (and .def_533 .def_535))
(define-fun .def_539 () Bool (and .def_536 .def_538))
(define-fun .def_542 () Bool (and .def_539 .def_541))
(define-fun .def_545 () Bool (and .def_542 .def_544))
(define-fun .def_522 () Bool (= call_synapse.ite18 call_synapse.ite17))
(define-fun .def_523 () Bool (or param_e_s1 .def_522))
(define-fun .def_518 () Bool (= call_synapse.ite13 call_synapse.ite18))
(define-fun .def_505 () Bool (not param_e_s1))
(define-fun .def_519 () Bool (or .def_505 .def_518))
(define-fun .def_514 () Bool (= call_synapse.ite12 call_synapse.ite11))
(define-fun .def_515 () Bool (or param_e_s1 .def_514))
(define-fun .def_510 () Bool (= call_synapse.ite7 call_synapse.ite12))
(define-fun .def_511 () Bool (or .def_505 .def_510))
(define-fun .def_504 () Bool (= call_synapse.ite6 call_synapse.ite))
(define-fun .def_506 () Bool (or .def_504 .def_505))
(define-fun .def_500 () Bool (= call_synapse.ite6 call_synapse.ite5))
(define-fun .def_502 () Bool (or .def_500 param_e_s1))
(define-fun .def_507 () Bool (and .def_502 .def_506))
(define-fun .def_512 () Bool (and .def_507 .def_511))
(define-fun .def_516 () Bool (and .def_512 .def_515))
(define-fun .def_520 () Bool (and .def_516 .def_519))
(define-fun .def_524 () Bool (and .def_520 .def_523))
(define-fun .def_496 () Bool (= env call_Sofar.Sofar))
(define-fun .def_493 () Bool (= call_synapse.mem_init_s mem_init_s))
(define-fun .def_490 () Bool (= dirty_s call_synapse.dirty_s))
(define-fun .def_486 () Bool (= valid_s call_synapse.valid_s))
(define-fun .def_482 () Bool (= invalid_s call_synapse.invalid_s))
(define-fun .def_477 () Bool (not env))
(define-fun .def_478 () Bool (or flby .def_477))
(define-fun .def_479 () Bool (= _OK_ .def_478))
(define-fun .def_483 () Bool (and .def_479 .def_482))
(define-fun .def_487 () Bool (and .def_483 .def_486))
(define-fun .def_491 () Bool (and .def_487 .def_490))
(define-fun .def_494 () Bool (and .def_491 .def_493))
(define-fun .def_497 () Bool (and .def_494 .def_496))
(define-fun .def_525 () Bool (and .def_497 .def_524))
(define-fun .def_546 () Bool (and .def_525 .def_545))
(define-fun .def_548 () Bool (and .def_546 .def_547))
(define-fun .def_550 () Bool (and .def_548 .def_549))
(define-fun .def_552 () Bool (and .def_550 .def_551))
(define-fun .def_554 () Bool (and .def_552 .def_553))
(define-fun .def_562 () Bool (and .def_554 .def_561))
(define-fun .def_564 () Bool (and .def_562 .def_563))
(define-fun .def_469 () Bool (<= 0 param_init_invalid_s))
(define-fun .def_471 () Bool (and .def_469 call_excludes3.excludes))
(define-fun .def_473 () Bool (= .def_471 call_Sofar.flby))
(define-fun .def_467 () Bool (= call_synapse.flby4 0))
(define-fun .def_464 () Bool (= call_synapse.flby3 0))
(define-fun .def_461 () Bool (= call_synapse.flby2 call_synapse.mem_init_s))
(define-fun .def_457 () Bool (= param_init_invalid_s call_synapse.flby))
(define-fun .def_451 () Bool (= call_synapse.ite9 0))
(define-fun .def_449 () Bool (not call_synapse.garde_s3))
(define-fun .def_452 () Bool (or .def_449 .def_451))
(define-fun .def_447 () Bool (= call_synapse.ite15 1))
(define-fun .def_450 () Bool (or .def_447 .def_449))
(define-fun .def_453 () Bool (and .def_450 .def_452))
(define-fun .def_443 () Bool (= call_synapse.ite8 0))
(define-fun .def_440 () Bool (not call_synapse.garde_s2))
(define-fun .def_444 () Bool (or .def_440 .def_443))
(define-fun .def_438 () Bool (= call_synapse.ite14 1))
(define-fun .def_441 () Bool (or .def_438 .def_440))
(define-fun .def_445 () Bool (and .def_441 .def_444))
(define-fun .def_434 () Bool (= call_synapse.ite13 0))
(define-fun .def_432 () Bool (not call_synapse.garde_s1))
(define-fun .def_435 () Bool (or .def_432 .def_434))
(define-fun .def_426 () Bool (= call_synapse.ite15 call_synapse.ite16))
(define-fun .def_417 () Bool (not param_e_s3))
(define-fun .def_427 () Bool (or .def_417 .def_426))
(define-fun .def_421 () Bool (= call_synapse.ite3 call_synapse.ite4))
(define-fun .def_422 () Bool (or .def_417 .def_421))
(define-fun .def_415 () Bool (= call_synapse.ite9 call_synapse.ite10))
(define-fun .def_418 () Bool (or .def_415 .def_417))
(define-fun .def_423 () Bool (and .def_418 .def_422))
(define-fun .def_428 () Bool (and .def_423 .def_427))
(define-fun .def_430 () Bool (and .def_428 flby))
(define-fun .def_436 () Bool (and .def_430 .def_435))
(define-fun .def_446 () Bool (and .def_436 .def_445))
(define-fun .def_454 () Bool (and .def_446 .def_453))
(define-fun .def_458 () Bool (and .def_454 .def_457))
(define-fun .def_462 () Bool (and .def_458 .def_461))
(define-fun .def_465 () Bool (and .def_462 .def_464))
(define-fun .def_468 () Bool (and .def_465 .def_467))
(define-fun .def_474 () Bool (and .def_468 .def_473))
(define-fun .def_565 () Bool (and .def_474 .def_564))
(assert .def_565)
